
Welcome to IBM(R) ILOG(R) CPLEX(R) Interactive Optimizer 22.1.1.0
  with Simplex, Mixed Integer & Barrier Optimizers
5725-A06 5725-A29 5724-Y48 5724-Y49 5724-Y54 5724-Y55 5655-Y21
Copyright IBM Corp. 1988, 2022.  All Rights Reserved.

Type 'help' for a list of available commands.
Type 'help' followed by a command name for more
information on commands.

CPLEX> Problem '/tmp/bdcd151d91b747538bb2fad3e9e58fe2-pulp.lp' read.
Read time = 0.01 sec. (2.08 ticks)
CPLEX> New value for time limit in seconds: 900
CPLEX> Version identifier: 22.1.1.0 | 2022-11-28 | 9160aff4d
CPXPARAM_TimeLimit                               900
Tried aggregator 3 times.
MIP Presolve eliminated 5996 rows and 1023 columns.
MIP Presolve modified 19289 coefficients.
Aggregator did 59 substitutions.
Reduced MIP has 10142 rows, 2275 columns, and 46736 nonzeros.
Reduced MIP has 2131 binaries, 0 generals, 0 SOSs, and 0 indicators.
Presolve time = 0.05 sec. (86.64 ticks)
Found incumbent of value 1271.111000 after 0.06 sec. (94.92 ticks)
Probing fixed 8 vars, tightened 0 bounds.
Probing time = 0.01 sec. (5.10 ticks)
Tried aggregator 1 time.
Detecting symmetries...
MIP Presolve eliminated 2726 rows and 34 columns.
MIP Presolve modified 3328 coefficients.
Reduced MIP has 7416 rows, 2241 columns, and 39521 nonzeros.
Reduced MIP has 2123 binaries, 0 generals, 0 SOSs, and 0 indicators.
Presolve time = 0.03 sec. (42.05 ticks)
Probing time = 0.01 sec. (1.88 ticks)
Clique table members: 9093.
MIP emphasis: balance optimality and feasibility.
MIP search method: dynamic search.
Parallel mode: deterministic, using up to 32 threads.
Root relaxation solution time = 0.06 sec. (53.05 ticks)

        Nodes                                         Cuts/
   Node  Left     Objective  IInf  Best Integer    Best Bound    ItCnt     Gap

*     0+    0                         1271.1110        0.0080           100.00%
*     0+    0                            8.0110        0.0080            99.90%
      0     0        1.3061   221        8.0110        1.3061      308   83.70%
*     0+    0                            2.4080        1.3061            45.76%
      0     0        1.3069   221        2.4080    Cliques: 1      309   45.09%
Detecting symmetries...
      0     2        1.3122   214        2.4080        1.4278      309   40.70%
Elapsed time = 0.54 sec. (561.79 ticks, tree = 0.02 MB, solutions = 3)
     25     1        cutoff              2.4080        2.1095     2331   12.39%

Clique cuts applied:  1
Gomory fractional cuts applied:  1

Root node processing (before b&c):
  Real time             =    0.47 sec. (559.19 ticks)
Parallel b&c, 32 threads:
  Real time             =    0.51 sec. (453.85 ticks)
  Sync time (average)   =    0.40 sec.
  Wait time (average)   =    0.00 sec.
                          ------------
Total (root+branch&cut) =    0.98 sec. (1013.03 ticks)

Solution pool: 3 solutions saved.

MIP - Integer optimal solution:  Objective =  2.4080000000e+00
Solution time =    0.99 sec.  Iterations = 4955  Nodes = 70
Deterministic time = 1013.04 ticks  (1019.58 ticks/sec)

CPLEX> MILP problem relaxed to LP with fixed integer variables using
incumbent solution.
CPLEX> Version identifier: 22.1.1.0 | 2022-11-28 | 9160aff4d
CPXPARAM_TimeLimit                               900
Parallel mode: deterministic, using up to 32 threads for concurrent optimization:
 * Starting dual Simplex on 1 thread...
 * Starting Barrier on 30 threads...
 * Starting primal Simplex on 1 thread...
Tried aggregator 1 time.
LP Presolve eliminated 16197 rows and 3357 columns.
All rows and columns eliminated.
Presolve time = 0.00 sec. (7.50 ticks)

Dual simplex solved model.


Dual simplex - Optimal:  Objective =  2.4080000000e+00
Solution time =    0.02 sec.  Iterations = 0 (0)
Deterministic time = 15.40 ticks  (775.29 ticks/sec)

CPLEX> Solution written to file '/tmp/bdcd151d91b747538bb2fad3e9e58fe2-pulp.sol'.
CPLEX> Root classes: ['21']
Status: Optimal
Solved x values:
['1.2', '2.2', '4.2', '5.2', '8.2', '10.2', '13.2', '15.2', '21.20', '68.5', '71.2', '72.2', '134.2', '135.2']
